CMD:
./solvers/bin/cadical --plain --no-reduce -t 1600 ./data/cnfs//qspiflash_dualflexpress_divfive-p097/qspiflash_dualflexpress_divfive-p097.91.cnf

c --- [ banner ] -------------------------------------------------------------
c 
c CaDiCaL SAT Solver
c Copyright (c) 2016-2024
c A. Biere, M. Fleury, N. Froleyks, K. Fazekas, F. Pollitt, T. Faller
c JKU Linz, University of Freiburg, TU Wien
c 
c Version 2.1.3 5296d3d2a9bf48c154ab2acb5e44625776d821bf
c g++ (Gentoo 12.3.1_p20230526 p2) 12.3.1 20230526 -Wall -Wextra -O3 -DNDEBUG
c Sat Aug 9 07:26:21 PDT 2025 Linux cedar2.int.cedar.computecanada.ca 5.14.0-362.24.2.el9_3.x86_64 x86_64
c 
c --- [ limit ] --------------------------------------------------------------
c 
c setting time limit to 1600 seconds real time (due to '-t 1600')
c 
c --- [ parsing input ] ------------------------------------------------------
c 
c reading DIMACS file from './data/cnfs//qspiflash_dualflexpress_divfive-p097/qspiflash_dualflexpress_divfive-p097.91.cnf'
c opening file to read './data/cnfs//qspiflash_dualflexpress_divfive-p097/qspiflash_dualflexpress_divfive-p097.91.cnf'
c found 'p cnf 272491 796047' header
c parsed 796047 clauses in 0.12 seconds process time
c 
c --- [ options ] ------------------------------------------------------------
c 
c   --compact=false                (different from default 'true')
c   --decompose=false              (different from default 'true')
c   --deduplicate=false            (different from default 'true')
c   --elim=false                   (different from default 'true')
c   --probe=false                  (different from default 'true')
c   --reduce=false                 (different from default 'true')
c   --subsume=false                (different from default 'true')
c   --ternary=false                (different from default 'true')
c   --transred=false               (different from default 'true')
c   --vivify=false                 (different from default 'true')
c 
c --- [ solving ] ------------------------------------------------------------
c 
c time measured in process time since initialization
c 
c  seconds   reductions  redundant  irredundant
c          MB    restarts       trail       variables
c           level   conflicts       glue          remaining
c 
c *  0.12 126  0 0   0    0    0  0% 0 772837 256793 94%
c {  0.19 130  0 0   0    0    0  0% 0 772837 256793 94%
c i  0.26 131 134 0   3  182  140 18% 3 772837 256357 94%
c i  0.26 131 132 0   4  184  141 18% 3 772837 256206 94%
c i  0.26 131 131 0   4  185  141 18% 3 772837 256194 94%
c i  0.28 131 94 0  21  272  221 16% 3 772837 256193 94%
c i  0.29 131 81 0  23  318  260 15% 3 772837 256192 94%
c i  0.29 131 66 0  27  406  338 14% 3 772837 256182 94%
c i  0.30 131 65 0  27  417  344 13% 3 772837 256136 94%
c i  0.30 131 66 0  27  448  373 14% 3 772837 256135 94%
c i  0.32 131 62 0  41  512  430 13% 3 772837 256120 94%
c i  0.34 131 60 0  51  556  467 13% 3 772837 256119 94%
c i  0.35 131 57 0  51  650  554 13% 3 772837 256109 94%
c i  0.37 131 51 0  68  839  729 13% 3 772837 256107 94%
c }  0.43 132 68 0  87 1002  880 16% 3 772837 256107 94%
c [  0.43 132  0 0  87 1002  880  0% 0 772837 256107 94%
c O  0.49 132 1923 0  87 1003  881 97% 2 772837 256107 94%
c i  0.49 132 1917 0  87 1018  893 95% 3 772837 256103 94%
c i  0.53 132 1836 0  87 1504 1333 91% 5 772837 256099 94%
c i  0.55 132 1823 0  87 1665 1480 90% 5 772837 256095 94%
c 
c  seconds     reductions  redundant  irredundant
c          MB      restarts       trail       variables
c            level    conflicts       glue          remaining
c 
c i  0.69 132 1147 0  88 2674 2399 60% 7 772837 256091 94%
c i  0.69 132 1146 0  88 2675 2399 60% 7 772837 256087 94%
c i  0.70 132 1124 0  88 2708 2429 59% 7 772837 256065 94%
c i  0.70 132 1121 0  88 2714 2433 59% 7 772837 256058 94%
c i  0.71 132 1095 0  88 2769 2485 58% 6 772837 256057 94%
c i  0.72 132 1068 0  88 2828 2540 57% 6 772837 256056 94%
c ]  0.88 132 985 0  88 3007 2713 54% 6 772837 256012 94%
c {  0.88 132 68 0  88 3007 2713 16% 3 772837 256012 94%
c F  0.88 132 68 0  89 3008 2713 16% 3 772837 256012 94%
c i  0.88 132 68 0  89 3008 2713 16% 3 772837 256008 94%
c i  0.88 132 67 0  89 3009 2713 16% 3 772837 256004 94%
c i  0.88 132 67 0  89 3010 2713 16% 3 772837 256000 94%
c i  0.88 132 67 0  90 3011 2713 16% 3 772837 255996 94%
c i  0.88 132 67 0  92 3017 2718 16% 3 772837 255992 94%
c i  0.89 132 66 0  99 3049 2747 15% 3 772837 255988 94%
c i  0.91 132 65 0 113 3105 2794 15% 3 772837 255984 94%
c i  0.92 132 63 0 126 3154 2841 15% 3 772837 255852 94%
c i  1.00 132 69 0 160 3565 3201 16% 3 772837 255851 94%
c i  1.19 132 74 0 208 4304 3855 19% 3 772837 255847 94%
c i  1.32 132 70 0 274 4710 4219 18% 4 772837 255846 94%
c 
c  seconds   reductions  redundant  irredundant
c          MB    restarts       trail       variables
c           level   conflicts       glue          remaining
c 
c i  1.38 132 71 0 306 4916 4411 18% 4 772837 255845 94%
c i  1.42 132 71 0 315 5009 4501 18% 4 772837 255844 94%
c i  1.44 133 72 0 320 5108 4583 18% 4 772837 255840 94%
c i  1.46 133 71 0 342 5200 4671 18% 4 772837 255836 94%
... skipped 79 lines ...
c W  5.16 137 49 0 1339 21018 16164 15% 5 727532 253217 93%
c i  5.20 137 49 0 1351 21119 16254 15% 5 727532 253213 93%
c i  5.30 137 48 0 1382 21514 16603 15% 5 727532 253209 93%
c i  5.42 137 47 0 1418 21857 16898 15% 5 727532 253205 93%
c i  5.43 137 47 0 1421 21868 16907 15% 5 727532 253201 93%
c i  5.48 137 47 0 1437 22124 17137 15% 5 727532 253197 93%
c i  5.50 137 47 0 1439 22170 17173 15% 5 727532 253050 93%
c i  5.58 137 47 0 1471 22343 17326 15% 5 727532 253046 93%
c i  5.60 137 47 0 1483 22436 17412 15% 5 727532 253003 93%
c i  5.68 137 46 0 1526 22633 17586 15% 5 727532 252999 93%
c i  5.78 137 46 0 1581 22877 17798 15% 5 727532 252995 93%
c i  5.80 137 46 0 1586 22976 17869 15% 5 727532 252848 93%
c 
c  seconds   reductions     redundant  irredundant
c          MB    restarts          trail       variables
c           level     conflicts        glue          remaining
c 
c i  5.80 137 46 0 1586 22989 17880 15% 5 727532 252797 93%
c i  5.90 137 45 0 1614 23238 18109 15% 5 727532 252749 93%
c i  5.93 137 45 0 1614 23425 18276 15% 5 727532 252747 93%
c i  6.02 137 45 0 1617 23746 18543 15% 5 727532 252581 93%
c i  6.02 137 45 0 1617 23748 18544 15% 5 727532 252577 93%
c i  6.03 137 45 0 1617 23772 18557 15% 5 727532 252489 93%
c i  6.03 137 45 0 1617 23773 18557 15% 5 727532 252299 93%
c i  6.14 137 44 0 1637 24123 18854 15% 5 727532 252142 93%
c i  6.15 137 44 0 1637 24154 18876 15% 5 727532 251610 92%
c i  6.23 137 44 0 1652 24303 19011 15% 5 727532 251606 92%
c i  6.25 137 44 0 1660 24347 19050 15% 5 727532 246759 91%
c i  6.33 137 44 0 1676 24570 19247 16% 5 727532 246399 90%
c i  6.34 137 44 0 1676 24595 19266 16% 5 727532 246395 90%
c i  6.39 137 44 0 1685 24652 19314 16% 5 727532 246133 90%
c i  6.47 137 43 0 1700 24851 19478 16% 5 727532 246129 90%
c i  6.50 137 43 0 1703 24899 19520 16% 5 727532 245265 90%
c i  6.58 137 43 0 1720 25069 19657 16% 5 727532 244933 90%
c i  6.58 137 43 0 1720 25072 19659 16% 5 727532 244929 90%
c i  6.58 137 43 0 1720 25073 19659 16% 5 727532 244702 90%
c i  6.61 137 43 0 1723 25127 19699 16% 5 727532 242827 89%
c 
c  seconds   reductions     redundant  irredundant
c          MB    restarts          trail       variables
c           level     conflicts        glue          remaining
c 
c i  6.74 137 42 0 1751 25323 19844 16% 5 727532 221953 81%
c i  6.74 137 42 0 1752 25328 19845 16% 5 727532 208418 76%
c }  6.74 137 42 0 1752 25330 19845 16% 5 727532 208407 76%
c 0  6.74 137 42 0 1752 25330 19845 16% 5 727532 208407 76%
c 
c --- [ result ] -------------------------------------------------------------
c 
s UNSATISFIABLE
c 
c --- [ run-time profiling ] -------------------------------------------------
c 
c process time taken by individual solving procedures
c (percentage relative to process time for solving)
c 
c         6.62  100.00% search
c         4.50   67.97% unstable
c         1.83   27.61% stable
c         0.23    3.42% walk
c         0.12    1.83% parse
c         0.07    0.99% lucky
c         0.00    0.00% simplify
c   =================================
c         6.62   98.19% solve
c 
c last line shows process time for solving
c (percentage relative to total process time)
c 
c --- [ statistics ] ---------------------------------------------------------
c 
c chronological:             10321        40.75 %  of conflicts
c conflicts:                 25330      3826.59    per second
c decisions:                105747     15975.15    per second
c fixed:                     64050        23.51 %  of all variables
c learned:                   23988        94.70 %  per conflict
c learned_lits:             554863       100.00 %  learned literals
c minimized:                     0         0.00 %  learned literals
c shrunken:                  92020        16.58 %  learned literals
c minishrunken:             106168        19.13 %  learned literals
c otfs:                        270         1.07 %  of conflict
c propagations:           98291059        14.85 M  per second
c rephased:                      6      4221.67    interval
c restarts:                   1752        14.46    interval
c stabilizing:                   2        39.49 %  of conflicts
c subsumed:                   1663         0.21 %  of all clauses
c strengthened:                267         0.03 %  of all clauses
c walked:                        1     25330.00    interval
c 
c seconds are measured in process time for solving
c 
c --- [ resources ] ----------------------------------------------------------
c 
c total process time since initialization:         6.74    seconds
c total real time since initialization:            6.80    seconds
c maximum resident set size of process:          140.73    MB
c 
c --- [ shutting down ] ------------------------------------------------------
c 
c exit 20
